p cnf 223 1025
-1 -33 0
-2 -33 0
1 2 33 0
1 2 -34 0
-1 -2 -34 0
-1 2 34 0
1 -2 34 0
33 -35 0
-3 -35 0
3 -33 35 0
3 -33 -36 0
-3 33 -36 0
3 33 36 0
-3 -33 36 0
35 -37 0
-4 -37 0
4 -35 37 0
4 -35 -38 0
-4 35 -38 0
4 35 38 0
-4 -35 38 0
37 -39 0
-5 -39 0
5 -37 39 0
5 -37 -40 0
-5 37 -40 0
5 37 40 0
-5 -37 40 0
39 -41 0
-6 -41 0
6 -39 41 0
6 -39 -42 0
-6 39 -42 0
6 39 42 0
-6 -39 42 0
41 -43 0
-7 -43 0
7 -41 43 0
7 -41 -44 0
-7 41 -44 0
7 41 44 0
-7 -41 44 0
43 -45 0
-8 -45 0
8 -43 45 0
8 -43 -46 0
-8 43 -46 0
8 43 46 0
-8 -43 46 0
2 -47 0
1 -47 0
-1 -2 47 0
-1 -2 -48 0
1 2 -48 0
1 -2 48 0
-1 2 48 0
-2 -3 49 0
-3 -47 49 0
-2 -47 49 0
2 3 -49 0
3 47 -49 0
2 47 -49 0
3 -49 -50 0
2 -49 -50 0
47 -49 -50 0
-3 49 50 0
-2 49 50 0
-47 49 50 0
-2 -3 -47 50 0
2 3 47 -50 0
-3 -4 51 0
-4 -49 51 0
-3 -49 51 0
3 4 -51 0
4 49 -51 0
3 49 -51 0
4 -51 -52 0
3 -51 -52 0
49 -51 -52 0
-4 51 52 0
-3 51 52 0
-49 51 52 0
-3 -4 -49 52 0
3 4 49 -52 0
-4 -5 53 0
-5 -51 53 0
-4 -51 53 0
4 5 -53 0
5 51 -53 0
4 51 -53 0
5 -53 -54 0
4 -53 -54 0
51 -53 -54 0
-5 53 54 0
-4 53 54 0
-51 53 54 0
-4 -5 -51 54 0
4 5 51 -54 0
-5 -6 55 0
-6 -53 55 0
-5 -53 55 0
5 6 -55 0
6 53 -55 0
5 53 -55 0
6 -55 -56 0
5 -55 -56 0
53 -55 -56 0
-6 55 56 0
-5 55 56 0
-53 55 56 0
-5 -6 -53 56 0
5 6 53 -56 0
-6 -7 57 0
-7 -55 57 0
-6 -55 57 0
6 7 -57 0
7 55 -57 0
6 55 -57 0
7 -57 -58 0
6 -57 -58 0
55 -57 -58 0
-7 57 58 0
-6 57 58 0
-55 57 58 0
-6 -7 -55 58 0
6 7 55 -58 0
-7 -8 59 0
-8 -57 59 0
-7 -57 59 0
7 8 -59 0
8 57 -59 0
7 57 -59 0
8 -59 -60 0
7 -59 -60 0
57 -59 -60 0
-8 59 60 0
-7 59 60 0
-57 59 60 0
-7 -8 -57 60 0
7 8 57 -60 0
8 -61 0
59 -61 0
-8 -59 61 0
-8 -59 -62 0
8 59 -62 0
-8 59 62 0
8 -59 62 0
50 -63 0
1 -63 0
-1 -50 63 0
-1 -50 -64 0
1 50 -64 0
1 -50 64 0
-1 50 64 0
-2 -52 65 0
-52 -63 65 0
-2 -63 65 0
2 52 -65 0
52 63 -65 0
2 63 -65 0
52 -65 -66 0
2 -65 -66 0
63 -65 -66 0
-52 65 66 0
-2 65 66 0
-63 65 66 0
-2 -52 -63 66 0
2 52 63 -66 0
-3 -54 67 0
-54 -65 67 0
-3 -65 67 0
3 54 -67 0
54 65 -67 0
3 65 -67 0
54 -67 -68 0
3 -67 -68 0
65 -67 -68 0
-54 67 68 0
-3 67 68 0
-65 67 68 0
-3 -54 -65 68 0
3 54 65 -68 0
-4 -56 69 0
-56 -67 69 0
-4 -67 69 0
4 56 -69 0
56 67 -69 0
4 67 -69 0
56 -69 -70 0
4 -69 -70 0
67 -69 -70 0
-56 69 70 0
-4 69 70 0
-67 69 70 0
-4 -56 -67 70 0
4 56 67 -70 0
-5 -58 71 0
-58 -69 71 0
-5 -69 71 0
5 58 -71 0
58 69 -71 0
5 69 -71 0
58 -71 -72 0
5 -71 -72 0
69 -71 -72 0
-58 71 72 0
-5 71 72 0
-69 71 72 0
-5 -58 -69 72 0
5 58 69 -72 0
-6 -60 73 0
-60 -71 73 0
-6 -71 73 0
6 60 -73 0
60 71 -73 0
6 71 -73 0
60 -73 -74 0
6 -73 -74 0
71 -73 -74 0
-60 73 74 0
-6 73 74 0
-71 73 74 0
-6 -60 -71 74 0
6 60 71 -74 0
-7 -62 75 0
-62 -73 75 0
-7 -73 75 0
7 62 -75 0
62 73 -75 0
7 73 -75 0
62 -75 -76 0
7 -75 -76 0
73 -75 -76 0
-62 75 76 0
-7 75 76 0
-73 75 76 0
-7 -62 -73 76 0
7 62 73 -76 0
-8 -61 77 0
-61 -75 77 0
-8 -75 77 0
8 61 -77 0
61 75 -77 0
8 75 -77 0
61 -77 -78 0
8 -77 -78 0
75 -77 -78 0
-61 77 78 0
-8 77 78 0
-75 77 78 0
-8 -61 -75 78 0
8 61 75 -78 0
-1 -79 0
-48 -79 0
1 48 79 0
1 48 -80 0
-1 -48 -80 0
-1 48 80 0
1 -48 80 0
79 -81 0
-64 -81 0
64 -79 81 0
64 -79 -82 0
-64 79 -82 0
64 79 82 0
-64 -79 82 0
81 -83 0
-66 -83 0
66 -81 83 0
66 -81 -84 0
-66 81 -84 0
66 81 84 0
-66 -81 84 0
83 -85 0
-68 -85 0
68 -83 85 0
68 -83 -86 0
-68 83 -86 0
68 83 86 0
-68 -83 86 0
85 -87 0
-70 -87 0
70 -85 87 0
70 -85 -88 0
-70 85 -88 0
70 85 88 0
-70 -85 88 0
87 -89 0
-72 -89 0
72 -87 89 0
72 -87 -90 0
-72 87 -90 0
72 87 90 0
-72 -87 90 0
89 -91 0
-74 -91 0
74 -89 91 0
74 -89 -92 0
-74 89 -92 0
74 89 92 0
-74 -89 92 0
91 -93 0
-76 -93 0
76 -91 93 0
76 -91 -94 0
-76 91 -94 0
76 91 94 0
-76 -91 94 0
93 -95 0
-78 -95 0
78 -93 95 0
78 -93 -96 0
-78 93 -96 0
78 93 96 0
-78 -93 96 0
95 -97 0
-77 -97 0
77 -95 97 0
77 -95 -98 0
-77 95 -98 0
77 95 98 0
-77 -95 98 0
-9 -99 0
-10 -99 0
9 10 99 0
9 10 -100 0
-9 -10 -100 0
-9 10 100 0
9 -10 100 0
99 -101 0
-11 -101 0
11 -99 101 0
11 -99 -102 0
-11 99 -102 0
11 99 102 0
-11 -99 102 0
101 -103 0
-12 -103 0
12 -101 103 0
12 -101 -104 0
-12 101 -104 0
12 101 104 0
-12 -101 104 0
103 -105 0
-13 -105 0
13 -103 105 0
13 -103 -106 0
-13 103 -106 0
13 103 106 0
-13 -103 106 0
105 -107 0
-14 -107 0
14 -105 107 0
14 -105 -108 0
-14 105 -108 0
14 105 108 0
-14 -105 108 0
107 -109 0
-15 -109 0
15 -107 109 0
15 -107 -110 0
-15 107 -110 0
15 107 110 0
-15 -107 110 0
109 -111 0
-16 -111 0
16 -109 111 0
16 -109 -112 0
-16 109 -112 0
16 109 112 0
-16 -109 112 0
10 -113 0
9 -113 0
-9 -10 113 0
-9 -10 -114 0
9 10 -114 0
9 -10 114 0
-9 10 114 0
-10 -11 115 0
-11 -113 115 0
-10 -113 115 0
10 11 -115 0
11 113 -115 0
10 113 -115 0
11 -115 -116 0
10 -115 -116 0
113 -115 -116 0
-11 115 116 0
-10 115 116 0
-113 115 116 0
-10 -11 -113 116 0
10 11 113 -116 0
-11 -12 117 0
-12 -115 117 0
-11 -115 117 0
11 12 -117 0
12 115 -117 0
11 115 -117 0
12 -117 -118 0
11 -117 -118 0
115 -117 -118 0
-12 117 118 0
-11 117 118 0
-115 117 118 0
-11 -12 -115 118 0
11 12 115 -118 0
-12 -13 119 0
-13 -117 119 0
-12 -117 119 0
12 13 -119 0
13 117 -119 0
12 117 -119 0
13 -119 -120 0
12 -119 -120 0
117 -119 -120 0
-13 119 120 0
-12 119 120 0
-117 119 120 0
-12 -13 -117 120 0
12 13 117 -120 0
-13 -14 121 0
-14 -119 121 0
-13 -119 121 0
13 14 -121 0
14 119 -121 0
13 119 -121 0
14 -121 -122 0
13 -121 -122 0
119 -121 -122 0
-14 121 122 0
-13 121 122 0
-119 121 122 0
-13 -14 -119 122 0
13 14 119 -122 0
-14 -15 123 0
-15 -121 123 0
-14 -121 123 0
14 15 -123 0
15 121 -123 0
14 121 -123 0
15 -123 -124 0
14 -123 -124 0
121 -123 -124 0
-15 123 124 0
-14 123 124 0
-121 123 124 0
-14 -15 -121 124 0
14 15 121 -124 0
-15 -16 125 0
-16 -123 125 0
-15 -123 125 0
15 16 -125 0
16 123 -125 0
15 123 -125 0
16 -125 -126 0
15 -125 -126 0
123 -125 -126 0
-16 125 126 0
-15 125 126 0
-123 125 126 0
-15 -16 -123 126 0
15 16 123 -126 0
16 -127 0
125 -127 0
-16 -125 127 0
-16 -125 -128 0
16 125 -128 0
-16 125 128 0
16 -125 128 0
116 -129 0
9 -129 0
-9 -116 129 0
-9 -116 -130 0
9 116 -130 0
9 -116 130 0
-9 116 130 0
-10 -118 131 0
-118 -129 131 0
-10 -129 131 0
10 118 -131 0
118 129 -131 0
10 129 -131 0
118 -131 -132 0
10 -131 -132 0
129 -131 -132 0
-118 131 132 0
-10 131 132 0
-129 131 132 0
-10 -118 -129 132 0
10 118 129 -132 0
-11 -120 133 0
-120 -131 133 0
-11 -131 133 0
11 120 -133 0
120 131 -133 0
11 131 -133 0
120 -133 -134 0
11 -133 -134 0
131 -133 -134 0
-120 133 134 0
-11 133 134 0
-131 133 134 0
-11 -120 -131 134 0
11 120 131 -134 0
-12 -122 135 0
-122 -133 135 0
-12 -133 135 0
12 122 -135 0
122 133 -135 0
12 133 -135 0
122 -135 -136 0
12 -135 -136 0
133 -135 -136 0
-122 135 136 0
-12 135 136 0
-133 135 136 0
-12 -122 -133 136 0
12 122 133 -136 0
-13 -124 137 0
-124 -135 137 0
-13 -135 137 0
13 124 -137 0
124 135 -137 0
13 135 -137 0
124 -137 -138 0
13 -137 -138 0
135 -137 -138 0
-124 137 138 0
-13 137 138 0
-135 137 138 0
-13 -124 -135 138 0
13 124 135 -138 0
-14 -126 139 0
-126 -137 139 0
-14 -137 139 0
14 126 -139 0
126 137 -139 0
14 137 -139 0
126 -139 -140 0
14 -139 -140 0
137 -139 -140 0
-126 139 140 0
-14 139 140 0
-137 139 140 0
-14 -126 -137 140 0
14 126 137 -140 0
-15 -128 141 0
-128 -139 141 0
-15 -139 141 0
15 128 -141 0
128 139 -141 0
15 139 -141 0
128 -141 -142 0
15 -141 -142 0
139 -141 -142 0
-128 141 142 0
-15 141 142 0
-139 141 142 0
-15 -128 -139 142 0
15 128 139 -142 0
-16 -127 143 0
-127 -141 143 0
-16 -141 143 0
16 127 -143 0
127 141 -143 0
16 141 -143 0
127 -143 -144 0
16 -143 -144 0
141 -143 -144 0
-127 143 144 0
-16 143 144 0
-141 143 144 0
-16 -127 -141 144 0
16 127 141 -144 0
132 -145 0
9 -145 0
-9 -132 145 0
-9 -132 -146 0
9 132 -146 0
9 -132 146 0
-9 132 146 0
-10 -134 147 0
-134 -145 147 0
-10 -145 147 0
10 134 -147 0
134 145 -147 0
10 145 -147 0
134 -147 -148 0
10 -147 -148 0
145 -147 -148 0
-134 147 148 0
-10 147 148 0
-145 147 148 0
-10 -134 -145 148 0
10 134 145 -148 0
-11 -136 149 0
-136 -147 149 0
-11 -147 149 0
11 136 -149 0
136 147 -149 0
11 147 -149 0
136 -149 -150 0
11 -149 -150 0
147 -149 -150 0
-136 149 150 0
-11 149 150 0
-147 149 150 0
-11 -136 -147 150 0
11 136 147 -150 0
-12 -138 151 0
-138 -149 151 0
-12 -149 151 0
12 138 -151 0
138 149 -151 0
12 149 -151 0
138 -151 -152 0
12 -151 -152 0
149 -151 -152 0
-138 151 152 0
-12 151 152 0
-149 151 152 0
-12 -138 -149 152 0
12 138 149 -152 0
-13 -140 153 0
-140 -151 153 0
-13 -151 153 0
13 140 -153 0
140 151 -153 0
13 151 -153 0
140 -153 -154 0
13 -153 -154 0
151 -153 -154 0
-140 153 154 0
-13 153 154 0
-151 153 154 0
-13 -140 -151 154 0
13 140 151 -154 0
-14 -142 155 0
-142 -153 155 0
-14 -153 155 0
14 142 -155 0
142 153 -155 0
14 153 -155 0
142 -155 -156 0
14 -155 -156 0
153 -155 -156 0
-142 155 156 0
-14 155 156 0
-153 155 156 0
-14 -142 -153 156 0
14 142 153 -156 0
-15 -144 157 0
-144 -155 157 0
-15 -155 157 0
15 144 -157 0
144 155 -157 0
15 155 -157 0
144 -157 -158 0
15 -157 -158 0
155 -157 -158 0
-144 157 158 0
-15 157 158 0
-155 157 158 0
-15 -144 -155 158 0
15 144 155 -158 0
-16 -143 159 0
-143 -157 159 0
-16 -157 159 0
16 143 -159 0
143 157 -159 0
16 157 -159 0
143 -159 -160 0
16 -159 -160 0
157 -159 -160 0
-143 159 160 0
-16 159 160 0
-157 159 160 0
-16 -143 -157 160 0
16 143 157 -160 0
148 -161 0
9 -161 0
-9 -148 161 0
-9 -148 -162 0
9 148 -162 0
9 -148 162 0
-9 148 162 0
-10 -150 163 0
-150 -161 163 0
-10 -161 163 0
10 150 -163 0
150 161 -163 0
10 161 -163 0
150 -163 -164 0
10 -163 -164 0
161 -163 -164 0
-150 163 164 0
-10 163 164 0
-161 163 164 0
-10 -150 -161 164 0
10 150 161 -164 0
-11 -152 165 0
-152 -163 165 0
-11 -163 165 0
11 152 -165 0
152 163 -165 0
11 163 -165 0
152 -165 -166 0
11 -165 -166 0
163 -165 -166 0
-152 165 166 0
-11 165 166 0
-163 165 166 0
-11 -152 -163 166 0
11 152 163 -166 0
-12 -154 167 0
-154 -165 167 0
-12 -165 167 0
12 154 -167 0
154 165 -167 0
12 165 -167 0
154 -167 -168 0
12 -167 -168 0
165 -167 -168 0
-154 167 168 0
-12 167 168 0
-165 167 168 0
-12 -154 -165 168 0
12 154 165 -168 0
-13 -156 169 0
-156 -167 169 0
-13 -167 169 0
13 156 -169 0
156 167 -169 0
13 167 -169 0
156 -169 -170 0
13 -169 -170 0
167 -169 -170 0
-156 169 170 0
-13 169 170 0
-167 169 170 0
-13 -156 -167 170 0
13 156 167 -170 0
-14 -158 171 0
-158 -169 171 0
-14 -169 171 0
14 158 -171 0
158 169 -171 0
14 169 -171 0
158 -171 -172 0
14 -171 -172 0
169 -171 -172 0
-158 171 172 0
-14 171 172 0
-169 171 172 0
-14 -158 -169 172 0
14 158 169 -172 0
-15 -160 173 0
-160 -171 173 0
-15 -171 173 0
15 160 -173 0
160 171 -173 0
15 171 -173 0
160 -173 -174 0
15 -173 -174 0
171 -173 -174 0
-160 173 174 0
-15 173 174 0
-171 173 174 0
-15 -160 -171 174 0
15 160 171 -174 0
-16 -159 175 0
-159 -173 175 0
-16 -173 175 0
16 159 -175 0
159 173 -175 0
16 173 -175 0
159 -175 -176 0
16 -175 -176 0
173 -175 -176 0
-159 175 176 0
-16 175 176 0
-173 175 176 0
-16 -159 -173 176 0
16 159 173 -176 0
-9 -177 0
-114 -177 0
9 114 177 0
9 114 -178 0
-9 -114 -178 0
-9 114 178 0
9 -114 178 0
177 -179 0
-130 -179 0
130 -177 179 0
130 -177 -180 0
-130 177 -180 0
130 177 180 0
-130 -177 180 0
179 -181 0
-146 -181 0
146 -179 181 0
146 -179 -182 0
-146 179 -182 0
146 179 182 0
-146 -179 182 0
181 -183 0
-162 -183 0
162 -181 183 0
162 -181 -184 0
-162 181 -184 0
162 181 184 0
-162 -181 184 0
183 -185 0
-164 -185 0
164 -183 185 0
164 -183 -186 0
-164 183 -186 0
164 183 186 0
-164 -183 186 0
185 -187 0
-166 -187 0
166 -185 187 0
166 -185 -188 0
-166 185 -188 0
166 185 188 0
-166 -185 188 0
187 -189 0
-168 -189 0
168 -187 189 0
168 -187 -190 0
-168 187 -190 0
168 187 190 0
-168 -187 190 0
189 -191 0
-170 -191 0
170 -189 191 0
170 -189 -192 0
-170 189 -192 0
170 189 192 0
-170 -189 192 0
191 -193 0
-172 -193 0
172 -191 193 0
172 -191 -194 0
-172 191 -194 0
172 191 194 0
-172 -191 194 0
193 -195 0
-174 -195 0
174 -193 195 0
174 -193 -196 0
-174 193 -196 0
174 193 196 0
-174 -193 196 0
195 -197 0
-176 -197 0
176 -195 197 0
176 -195 -198 0
-176 195 -198 0
176 195 198 0
-176 -195 198 0
197 -199 0
-175 -199 0
175 -197 199 0
175 -197 -200 0
-175 197 -200 0
175 197 200 0
-175 -197 200 0
1 -201 0
146 -201 0
-1 -146 201 0
-1 -146 -202 0
1 146 -202 0
-1 146 202 0
1 -146 202 0
-48 -162 203 0
-48 -201 203 0
-162 -201 203 0
48 162 -203 0
48 201 -203 0
162 201 -203 0
48 -203 -204 0
162 -203 -204 0
201 -203 -204 0
-48 203 204 0
-162 203 204 0
-201 203 204 0
-48 -162 -201 204 0
48 162 201 -204 0
-64 -164 205 0
-64 -203 205 0
-164 -203 205 0
64 164 -205 0
64 203 -205 0
164 203 -205 0
64 -205 -206 0
164 -205 -206 0
203 -205 -206 0
-64 205 206 0
-164 205 206 0
-203 205 206 0
-64 -164 -203 206 0
64 164 203 -206 0
-66 -166 207 0
-66 -205 207 0
-166 -205 207 0
66 166 -207 0
66 205 -207 0
166 205 -207 0
66 -207 -208 0
166 -207 -208 0
205 -207 -208 0
-66 207 208 0
-166 207 208 0
-205 207 208 0
-66 -166 -205 208 0
66 166 205 -208 0
-68 -168 209 0
-68 -207 209 0
-168 -207 209 0
68 168 -209 0
68 207 -209 0
168 207 -209 0
68 -209 -210 0
168 -209 -210 0
207 -209 -210 0
-68 209 210 0
-168 209 210 0
-207 209 210 0
-68 -168 -207 210 0
68 168 207 -210 0
-70 -170 211 0
-70 -209 211 0
-170 -209 211 0
70 170 -211 0
70 209 -211 0
170 209 -211 0
70 -211 -212 0
170 -211 -212 0
209 -211 -212 0
-70 211 212 0
-170 211 212 0
-209 211 212 0
-70 -170 -209 212 0
70 170 209 -212 0
-72 -172 213 0
-72 -211 213 0
-172 -211 213 0
72 172 -213 0
72 211 -213 0
172 211 -213 0
72 -213 -214 0
172 -213 -214 0
211 -213 -214 0
-72 213 214 0
-172 213 214 0
-211 213 214 0
-72 -172 -211 214 0
72 172 211 -214 0
-74 -174 215 0
-74 -213 215 0
-174 -213 215 0
74 174 -215 0
74 213 -215 0
174 213 -215 0
74 -215 -216 0
174 -215 -216 0
213 -215 -216 0
-74 215 216 0
-174 215 216 0
-213 215 216 0
-74 -174 -213 216 0
74 174 213 -216 0
-76 -176 217 0
-76 -215 217 0
-176 -215 217 0
76 176 -217 0
76 215 -217 0
176 215 -217 0
76 -217 -218 0
176 -217 -218 0
215 -217 -218 0
-76 217 218 0
-176 217 218 0
-215 217 218 0
-76 -176 -215 218 0
76 176 215 -218 0
-78 -175 219 0
-78 -217 219 0
-175 -217 219 0
78 175 -219 0
78 217 -219 0
175 217 -219 0
78 -219 -220 0
175 -219 -220 0
217 -219 -220 0
-78 219 220 0
-175 219 220 0
-217 219 220 0
-78 -175 -217 220 0
78 175 217 -220 0
77 -221 0
219 -221 0
-77 -219 221 0
-77 -219 -222 0
77 219 -222 0
-77 219 222 0
77 -219 222 0
9 -223 0
114 -223 0
-130 -223 0
202 -223 0
204 -223 0
-206 -223 0
208 -223 0
-210 -223 0
-212 -223 0
-214 -223 0
-216 -223 0
-218 -223 0
-220 -223 0
-221 -223 0
-222 -223 0
-9 -114 130 -202 -204 206 -208 210 212 214 216 218 220 221 222 223 0
223 0
c main::$tmp::return_value_nondet_char!0@1#1 17 18 19 20 21 22 23 24
c symex::nondet1 9 10 11 12 13 14 15 16
c symex::nondet0 1 2 3 4 5 6 7 8
c main::$tmp::return_value_nondet_char$0!0@1#2 9 10 11 12 13 14 15 16
c __CPROVER_rounding_mode!0#1 FALSE FALSE FALSE FALSE FALSE FALSE FALSE FALSE FALSE FALSE FALSE FALSE FALSE FALSE FALSE FALSE FALSE FALSE FALSE FALSE FALSE FALSE FALSE FALSE FALSE FALSE FALSE FALSE FALSE FALSE FALSE FALSE
c main::$tmp::return_value_nondet_char$0!0@1#1 25 26 27 28 29 30 31 32
c __CPROVER_memory_leak#1 FALSE FALSE FALSE FALSE FALSE FALSE FALSE FALSE FALSE FALSE FALSE FALSE FALSE FALSE FALSE FALSE FALSE FALSE FALSE FALSE FALSE FALSE FALSE FALSE FALSE FALSE FALSE FALSE FALSE FALSE FALSE FALSE FALSE FALSE FALSE FALSE FALSE FALSE FALSE FALSE FALSE FALSE FALSE FALSE FALSE FALSE FALSE FALSE FALSE FALSE FALSE FALSE FALSE FALSE FALSE FALSE FALSE FALSE FALSE FALSE FALSE FALSE FALSE FALSE
c __CPROVER_max_malloc_size#1 FALSE FALSE FALSE FALSE FALSE FALSE FALSE FALSE FALSE FALSE FALSE FALSE FALSE FALSE FALSE FALSE FALSE FALSE FALSE FALSE FALSE FALSE FALSE FALSE FALSE FALSE FALSE FALSE FALSE FALSE FALSE FALSE FALSE FALSE FALSE FALSE FALSE FALSE FALSE FALSE FALSE FALSE FALSE FALSE FALSE FALSE FALSE FALSE FALSE FALSE FALSE FALSE FALSE FALSE FALSE TRUE FALSE FALSE FALSE FALSE FALSE FALSE FALSE FALSE
c __CPROVER_deallocated#1 FALSE FALSE FALSE FALSE FALSE FALSE FALSE FALSE FALSE FALSE FALSE FALSE FALSE FALSE FALSE FALSE FALSE FALSE FALSE FALSE FALSE FALSE FALSE FALSE FALSE FALSE FALSE FALSE FALSE FALSE FALSE FALSE FALSE FALSE FALSE FALSE FALSE FALSE FALSE FALSE FALSE FALSE FALSE FALSE FALSE FALSE FALSE FALSE FALSE FALSE FALSE FALSE FALSE FALSE FALSE FALSE FALSE FALSE FALSE FALSE FALSE FALSE FALSE FALSE
c main::$tmp::return_value_nondet_char!0@1#2 1 2 3 4 5 6 7 8
c __CPROVER_dead_object#1 FALSE FALSE FALSE FALSE FALSE FALSE FALSE FALSE FALSE FALSE FALSE FALSE FALSE FALSE FALSE FALSE FALSE FALSE FALSE FALSE FALSE FALSE FALSE FALSE FALSE FALSE FALSE FALSE FALSE FALSE FALSE FALSE FALSE FALSE FALSE FALSE FALSE FALSE FALSE FALSE FALSE FALSE FALSE FALSE FALSE FALSE FALSE FALSE FALSE FALSE FALSE FALSE FALSE FALSE FALSE FALSE FALSE FALSE FALSE FALSE FALSE FALSE FALSE FALSE
